(declare-fun var0 () String)
(assert (str.in.re var0 (re.++ (re.* (re.+ (str.to.re "|||"))) (re.++ (re.* (re.union (str.to.re "`") (str.to.re "{{{"))) (re.++ (re.union (re.* (str.to.re "]]]")) (re.union (str.to.re "^") (str.to.re "___"))) (re.++ (re.union (re.* (str.to.re "@")) (re.union (str.to.re "[[[") (str.to.re "\\\\\\"))) (re.++ (re.+ (re.union (str.to.re ">>") (str.to.re "??"))) (re.++ (re.* (re.+ (str.to.re "==="))) (re.++ (re.* (re.union (str.to.re ";;") (str.to.re "<"))) (re.++ (re.union (re.+ (str.to.re "//")) (re.+ (str.to.re ":"))) (re.++ (re.union (re.* (str.to.re "---")) (re.+ (str.to.re ".."))) (re.++ (re.* (re.+ (str.to.re ",,"))) (re.++ (re.* (re.* (str.to.re "+++"))) (re.++ (re.union (re.+ (str.to.re ")))")) (re.+ (str.to.re "***"))) (re.++ (re.* (re.union (str.to.re "'") (str.to.re "(("))) (re.++ (re.+ (re.+ (str.to.re "&"))) (re.++ (re.* (re.* (str.to.re "%"))) (re.++ (re.* (re.union (str.to.re "###") (str.to.re "$"))) (re.++ (re.* (re.* (str.to.re """"""))) (re.++ (re.* (re.* (str.to.re "!!!"))) (re.++ (re.+ (re.union (str.to.re "YY") (str.to.re "Z"))) (re.++ (re.* (re.+ (str.to.re "X"))) (re.++ (re.union (re.union (str.to.re "UU") (str.to.re "VV")) (re.* (str.to.re "WW"))) (re.++ (re.union (re.union (str.to.re "RR") (str.to.re "SSS")) (re.+ (str.to.re "TTT"))) (re.++ (re.union (re.+ (str.to.re "OO")) (re.union (str.to.re "PP") (str.to.re "Q"))) (re.++ (re.+ (re.+ (str.to.re "NN"))) (re.++ (re.union (re.+ (str.to.re "L")) (re.+ (str.to.re "MM"))) (re.++ (re.union (re.* (str.to.re "III")) (re.union (str.to.re "JJJ") (str.to.re "KKK"))) (re.++ (re.* (re.union (str.to.re "GG") (str.to.re "HH"))) (re.++ (re.union (re.union (str.to.re "CC") (str.to.re "D")) (re.union (str.to.re "E") (str.to.re "FFF"))) (re.++ (re.union (re.+ (str.to.re "AA")) (re.* (str.to.re "BBB"))) (re.++ (re.* (re.+ (str.to.re "zz"))) (re.++ (re.* (re.union (str.to.re "xx") (str.to.re "yyy"))) (re.++ (re.union (re.* (str.to.re "u")) (re.union (str.to.re "vv") (str.to.re "w"))) (re.++ (re.union (re.+ (str.to.re "ss")) (re.+ (str.to.re "ttt"))) (re.++ (re.+ (re.+ (str.to.re "r"))) (re.++ (re.union (re.* (str.to.re "ooo")) (re.union (str.to.re "pp") (str.to.re "q"))) (re.++ (re.+ (re.* (str.to.re "nn"))) (re.++ (re.* (re.union (str.to.re "ll") (str.to.re "m"))) (re.++ (re.+ (re.* (str.to.re "kkk"))) (re.++ (re.+ (re.union (str.to.re "i") (str.to.re "jj"))) (re.++ (re.+ (re.union (str.to.re "gg") (str.to.re "hhh"))) (re.++ (re.* (re.* (str.to.re "ff"))) (re.++ (re.+ (re.* (str.to.re "eee"))) (re.++ (re.union (re.+ (str.to.re "b")) (re.union (str.to.re "c") (str.to.re "d"))) (re.++ (re.+ (re.* (str.to.re "aaa"))) (re.++ (re.+ (re.union (str.to.re "888") (str.to.re "99"))) (re.++ (re.union (re.+ (str.to.re "555")) (re.union (str.to.re "6") (str.to.re "77"))) (re.++ (re.+ (re.* (str.to.re "444"))) (re.++ (re.+ (re.+ (str.to.re "333"))) (re.++ (re.+ (re.union (str.to.re "11") (str.to.re "22"))) (re.+ (re.+ (str.to.re "00"))))))))))))))))))))))))))))))))))))))))))))))))))))))
(check-sat)